p cnf 28 68
1 0
11 4 0
-11 -4 0
12 2 0
-12 -2 0
-2 -5 7 0
-7 2 0
-7 5 0
-13 -3 -5 0
3 13 0
5 13 0
-14 11 12 0
-11 14 0
-12 14 0
-15 -5 -6 0
5 15 0
6 15 0
13 14 -8 0
-13 -14 -8 0
13 -14 8 0
-13 14 8 0
4 15 9 0
-4 -15 9 0
4 -15 -9 0
-4 15 -9 0
5 6 -10 0
-5 -6 -10 0
5 -6 10 0
-5 6 10 0
-25 -17 -18 0
17 25 0
18 25 0
-26 -16 -19 0
16 26 0
19 26 0
-27 -18 -20 0
18 27 0
20 27 0
-18 -16 21 0
-21 18 0
-21 16 0
25 26 -22 0
-25 -26 -22 0
25 -26 22 0
-25 26 22 0
19 27 23 0
-19 -27 23 0
19 -27 -23 0
-19 27 -23 0
18 20 -24 0
-18 -20 -24 0
18 -20 24 0
-18 20 24 0
-2 16 0
-16 2 0
-3 17 0
-17 3 0
-5 18 0
-18 5 0
-4 19 0
-19 4 0
-6 20 0
-20 6 0
7 22 -28 0
-7 -22 -28 0
7 -22 28 0
-7 22 28 0
28 0
